50	535328

407 291
7435 7571
2822 3406
9969 9013
7399 8274
2052 1797
3636 3417
2487 3466
6960 7361
7777 6830
8594 8764
4401 4559
1236 469
7542 6843
2692 1884
9887 10354
4023 3526
1807 1340
1384 2276
2834 3513
6182 6988
7349 6715
9450 10228
1316 825
4792 4885
8057 7873
6291 5506
7835 8458
9937 9038
3367 2718
6891 6926
6794 7220
4631 4265
8689 9315
1867 2098
6707 7158
6621 6275
9419 9948
4071 4970
6294 5522
2698 2149
9850 8974
5282 5491
1504 2069
1988 1727
374 560
7831 7195
4876 5751
6100 6392
5257 4744
